50
669 51
348 673
58 323
936 631
312 475
432 981
836 204
581 576
811 181
414 852
827 721
1624 733
780 173
1577 616
1401 129
16 745
1259 212
1253 780
262 536
1426 582
202 482
333 441
1518 719
557 754
934 291
804 527
1388 972
1689 878
814 959
769 195
288 843
257 267
1446 243
152 506
840 31
1064 509
1793 727
524 527
223 180
1118 436
1330 322
658 820
1577 996
1007 185
285 777
509 250
425 637
1788 428
1083 715
1529 496
